;; Category : URL validation
;; Benchmark: url_minimal vs url_domain_or_ip
;; R1: Minimal: https?://\S+
;; R2: Host is strict-TLD domain OR strict IPv4 + port + path
;; Status   : sat
;;
;; Equivalence check: unsat ⟺ L(R1) = L(R2)

(set-info :smt-lib-version 2.6)
(set-info :category "url")
(set-info :status sat)
(set-logic QF_S)

(assert
  (not
    (=
      (re.inter (re.++ (str.to_re "http") (re.opt (str.to_re "s")) (str.to_re "://") (re.+ (re.range "!" "~"))) (re.comp (re.++ (str.to_re "http") (re.opt (str.to_re "s")) (str.to_re "://") (re.union (re.++ (re.++ (re.union (re.range "a" "z") (re.range "A" "Z") (re.range "0" "9")) (re.opt (re.++ (re.* (re.union (re.union (re.range "a" "z") (re.range "A" "Z") (re.range "0" "9")) (str.to_re "-"))) (re.union (re.range "a" "z") (re.range "A" "Z") (re.range "0" "9"))))) (re.* (re.++ (str.to_re ".") (re.++ (re.union (re.range "a" "z") (re.range "A" "Z") (re.range "0" "9")) (re.opt (re.++ (re.* (re.union (re.union (re.range "a" "z") (re.range "A" "Z") (re.range "0" "9")) (str.to_re "-"))) (re.union (re.range "a" "z") (re.range "A" "Z") (re.range "0" "9"))))))) (str.to_re ".") ((_ re.loop 2 6) (re.union (re.range "a" "z") (re.range "A" "Z")))) (re.++ (re.union (str.to_re "0") (re.++ (re.range "1" "9") (re.opt (re.range "0" "9"))) (re.++ (str.to_re "1") (re.range "0" "9") (re.range "0" "9")) (re.++ (str.to_re "2") (re.range "0" "4") (re.range "0" "9")) (re.++ (str.to_re "2") (str.to_re "5") (re.range "0" "5"))) (str.to_re ".") (re.union (str.to_re "0") (re.++ (re.range "1" "9") (re.opt (re.range "0" "9"))) (re.++ (str.to_re "1") (re.range "0" "9") (re.range "0" "9")) (re.++ (str.to_re "2") (re.range "0" "4") (re.range "0" "9")) (re.++ (str.to_re "2") (str.to_re "5") (re.range "0" "5"))) (str.to_re ".") (re.union (str.to_re "0") (re.++ (re.range "1" "9") (re.opt (re.range "0" "9"))) (re.++ (str.to_re "1") (re.range "0" "9") (re.range "0" "9")) (re.++ (str.to_re "2") (re.range "0" "4") (re.range "0" "9")) (re.++ (str.to_re "2") (str.to_re "5") (re.range "0" "5"))) (str.to_re ".") (re.union (str.to_re "0") (re.++ (re.range "1" "9") (re.opt (re.range "0" "9"))) (re.++ (str.to_re "1") (re.range "0" "9") (re.range "0" "9")) (re.++ (str.to_re "2") (re.range "0" "4") (re.range "0" "9")) (re.++ (str.to_re "2") (str.to_re "5") (re.range "0" "5"))))) (re.opt (re.++ (str.to_re ":") ((_ re.loop 1 5) (re.range "0" "9")))) (re.opt (re.++ (str.to_re "/") (re.* (re.range "!" "~")))))))
      (re.inter (re.comp (re.++ (str.to_re "http") (re.opt (str.to_re "s")) (str.to_re "://") (re.+ (re.range "!" "~")))) (re.++ (str.to_re "http") (re.opt (str.to_re "s")) (str.to_re "://") (re.union (re.++ (re.++ (re.union (re.range "a" "z") (re.range "A" "Z") (re.range "0" "9")) (re.opt (re.++ (re.* (re.union (re.union (re.range "a" "z") (re.range "A" "Z") (re.range "0" "9")) (str.to_re "-"))) (re.union (re.range "a" "z") (re.range "A" "Z") (re.range "0" "9"))))) (re.* (re.++ (str.to_re ".") (re.++ (re.union (re.range "a" "z") (re.range "A" "Z") (re.range "0" "9")) (re.opt (re.++ (re.* (re.union (re.union (re.range "a" "z") (re.range "A" "Z") (re.range "0" "9")) (str.to_re "-"))) (re.union (re.range "a" "z") (re.range "A" "Z") (re.range "0" "9"))))))) (str.to_re ".") ((_ re.loop 2 6) (re.union (re.range "a" "z") (re.range "A" "Z")))) (re.++ (re.union (str.to_re "0") (re.++ (re.range "1" "9") (re.opt (re.range "0" "9"))) (re.++ (str.to_re "1") (re.range "0" "9") (re.range "0" "9")) (re.++ (str.to_re "2") (re.range "0" "4") (re.range "0" "9")) (re.++ (str.to_re "2") (str.to_re "5") (re.range "0" "5"))) (str.to_re ".") (re.union (str.to_re "0") (re.++ (re.range "1" "9") (re.opt (re.range "0" "9"))) (re.++ (str.to_re "1") (re.range "0" "9") (re.range "0" "9")) (re.++ (str.to_re "2") (re.range "0" "4") (re.range "0" "9")) (re.++ (str.to_re "2") (str.to_re "5") (re.range "0" "5"))) (str.to_re ".") (re.union (str.to_re "0") (re.++ (re.range "1" "9") (re.opt (re.range "0" "9"))) (re.++ (str.to_re "1") (re.range "0" "9") (re.range "0" "9")) (re.++ (str.to_re "2") (re.range "0" "4") (re.range "0" "9")) (re.++ (str.to_re "2") (str.to_re "5") (re.range "0" "5"))) (str.to_re ".") (re.union (str.to_re "0") (re.++ (re.range "1" "9") (re.opt (re.range "0" "9"))) (re.++ (str.to_re "1") (re.range "0" "9") (re.range "0" "9")) (re.++ (str.to_re "2") (re.range "0" "4") (re.range "0" "9")) (re.++ (str.to_re "2") (str.to_re "5") (re.range "0" "5"))))) (re.opt (re.++ (str.to_re ":") ((_ re.loop 1 5) (re.range "0" "9")))) (re.opt (re.++ (str.to_re "/") (re.* (re.range "!" "~")))))))))

(check-sat)
(exit)
